
Log started (V12.10.0.0) Thu Apr  8 06:32:02 2021


Problem 'asset.lp' read.
Read time = 0.00 sec. (0.13 ticks)
New value for default parallel thread count: 1
New value for time limit in seconds: 200
Version identifier: 12.10.0.0 | 2019-11-26 | 843d4de
CPXPARAM_Threads                                 1
CPXPARAM_TimeLimit                               200
Found incumbent of value -0.894087 after 0.00 sec. (0.06 ticks)
Tried aggregator 3 times.
MIP Presolve eliminated 448 rows and 254 columns.
MIP Presolve modified 1202 coefficients.
Aggregator did 393 substitutions.
Reduced MIP has 466 rows, 521 columns, and 2183 nonzeros.
Reduced MIP has 455 binaries, 37 generals, 0 SOSs, and 0 indicators.
Presolve time = 0.01 sec. (5.82 ticks)
Probing fixed 53 vars, tightened 8 bounds.
Probing time = 0.01 sec. (2.60 ticks)
Cover probing fixed 0 vars, tightened 29 bounds.
Tried aggregator 1 time.
MIP Presolve eliminated 70 rows and 69 columns.
MIP Presolve modified 192 coefficients.
Reduced MIP has 396 rows, 451 columns, and 1797 nonzeros.
Reduced MIP has 394 binaries, 28 generals, 0 SOSs, and 0 indicators.
Presolve time = 0.00 sec. (1.07 ticks)
Probing time = 0.00 sec. (2.08 ticks)
Tried aggregator 1 time.
Detecting symmetries...
MIP Presolve modified 92 coefficients.
Reduced MIP has 396 rows, 451 columns, and 1797 nonzeros.
Reduced MIP has 394 binaries, 28 generals, 0 SOSs, and 0 indicators.
Presolve time = 0.00 sec. (1.24 ticks)
Probing time = 0.00 sec. (2.06 ticks)
Clique table members: 1322.
MIP emphasis: balance optimality and feasibility.
MIP search method: dynamic search.
Parallel mode: none, using 1 thread.
Root relaxation solution time = 0.01 sec. (5.31 ticks)

        Nodes                                         Cuts/
   Node  Left     Objective  IInf  Best Integer    Best Bound    ItCnt     Gap

*     0+    0                           -0.8941      304.3697              --- 
      0     0      188.5629    90       -0.8941      188.5629      406     --- 
      0     0      182.8535    90       -0.8941     Cuts: 144      507     --- 
      0     0      180.4870    90       -0.8941     Cuts: 128      669     --- 
      0     0      179.8909    90       -0.8941     Cuts: 119      766     --- 
      0     0      179.5703    90       -0.8941      Cuts: 75      802     --- 
      0     0      179.2991    90       -0.8941      Cuts: 57      853     --- 
Detecting symmetries...
      0     0      178.9610    90       -0.8941      Cuts: 75      923     --- 
      0     0      178.8439    90       -0.8941     Cuts: 107      983     --- 
*     0+    0                          120.2236      178.8439            48.76%
      0     0      178.5464    90      120.2236      Cuts: 62     1087   48.51%
      0     0      178.5095    90      120.2236      Cuts: 82     1144   48.48%
      0     0      178.4380    90      120.2236      Cuts: 47     1181   48.42%
      0     0      178.1941    90      120.2236      Cuts: 24     1222   48.22%
      0     0      178.1149    90      120.2236      Cuts: 69     1300   48.15%
*     0+    0                          121.4207      178.1149            46.69%
      0     0      178.0171    90      121.4207      Cuts: 57     1350   46.61%
      0     0      177.8886    90      121.4207      Cuts: 45     1401   46.51%
      0     0      177.5559    90      121.4207      Cuts: 75     1468   46.23%
*     0+    0                          121.4207      177.5559            46.23%
      0     0      177.1319    90      121.4207      Cuts: 78     1513   45.88%
      0     0      176.7599    90      121.4207      Cuts: 43     1594   45.58%
      0     0      176.7282    90      121.4207      Cuts: 97     1634   45.55%
      0     0      176.5938    90      121.4207      Cuts: 19     1663   45.44%
      0     0      176.5340    90      121.4207      Cuts: 49     1680   45.39%
      0     0      176.2062    90      121.4207      Cuts: 14     1730   45.12%
      0     0      175.8454    90      121.4207      Cuts: 65     1792   44.82%
      0     0      175.6839    90      121.4207      Cuts: 77     1857   44.69%
      0     0      175.6325    90      121.4207      Cuts: 76     1924   44.65%
      0     0      175.5327    90      121.4207      Cuts: 62     2007   44.57%
      0     0      175.4549    90      121.4207      Cuts: 67     2072   44.50%
      0     0      175.4365    90      121.4207      Cuts: 58     2106   44.49%
*     0+    0                          125.6142      175.4365            39.66%
Detecting symmetries...
      0     2      175.4365   116      125.6142      175.4365     2106   39.66%
Elapsed time = 0.23 sec. (206.85 ticks, tree = 0.01 MB, solutions = 4)
*    30+   29                          126.4058      175.1454            38.56%
*    30+   29                          126.4058      175.1454            38.56%
*    35    31      integral     0      126.4059      175.1454     3232   38.56%
*   130+   64                          135.4030      171.7895            26.87%
*   220   120      integral     0      138.2446      171.4012     7358   23.98%
*   222   120      integral     0      138.2448      171.4012     7368   23.98%
*   223   119      integral     0      138.2456      171.4012     7372   23.98%
    320   186      147.6306    62      138.2456      169.5837     9634   22.67%
    683   401      140.1959    70      138.2456      162.6329    18627   17.64%
*   806   229      integral     0      145.0501      158.9960    22783    9.61%
*   808   229      integral     0      145.0515      158.9960    22788    9.61%
*   880+  200                          145.8806      155.0530             6.29%
   1067    96        cutoff            145.8806      149.2816    29870    2.33%

Cover cuts applied:  3
Implied bound cuts applied:  136
Flow cuts applied:  2
Mixed integer rounding cuts applied:  30
Zero-half cuts applied:  29
Gomory fractional cuts applied:  2

Root node processing (before b&c):
  Real time             =    0.23 sec. (206.97 ticks)
Sequential b&c:
  Real time             =    0.82 sec. (902.99 ticks)
                          ------------
Total (root+branch&cut) =    1.05 sec. (1109.96 ticks)

Solution pool: 15 solutions saved.

MIP - Integer optimal, tolerance (0.0001/1e-06):  Objective =  1.4588060648e+02
Current MIP best bound =  1.4589489468e+02 (gap = 0.0142882, 0.01%)
Solution time =    1.05 sec.  Iterations = 31452  Nodes = 1175 (6)
Deterministic time = 1109.96 ticks  (1056.06 ticks/sec)


Incumbent solution
Variable Name           Solution Value
F                           170.000000
f1                            0.919394
f2                           23.200000
y59                           1.000000
y97                           1.000000
y99                           1.000000
y30                           1.000000
y48                           1.000000
y15                           1.000000
y90                           1.000000
y116                          1.000000
y9                            1.000000
y92                           1.000000
y50                           1.000000
s2                            6.000000
s13                           6.000000
s20                           6.000000
s28                           6.000000
s32                           6.000000
s45                           6.000000
s59                           6.214755
s95                           6.000000
s97                           6.276650
s99                           6.376925
s100                          6.000000
s101                          6.000000
s125                          6.000000
s141                          6.000000
s152                          6.000000
s174                          6.000000
s184                          6.000000
s115                          6.010000
s91                           6.100000
s143                          6.170000
s46                           6.180000
s30                           6.638741
s48                           6.320000
s15                           7.369945
s90                           7.561422
s102                          6.620000
s82                           6.660000
s103                          6.670000
s112                          6.700000
s116                          7.675575
s134                          6.770000
s130                          6.780000
s146                          6.820000
s178                          6.900000
s118                          6.930000
s9                            7.783811
s92                           7.966494
s50                           7.853953
x153x15x1                     1.000000
x175x48x1                     1.000000
x161x97x1                     1.000000
x161x99x1                     1.000000
x180x97x1                     1.000000
x180x99x1                     1.000000
x153x15x2                     1.000000
x182x30x2                     1.000000
x175x59x2                     1.000000
x129x59x2                     1.000000
x182x30x3                     1.000000
x129x48x3                     1.000000
x59x90x2                      1.000000
x59x116x2                     1.000000
x97x90x1                      1.000000
x97x116x1                     1.000000
x99x9x1                       1.000000
x99x50x1                      1.000000
x30x92x2                      1.000000
x30x92x3                      1.000000
x48x9x1                       1.000000
x48x50x3                      1.000000
x15x0x1                       1.000000
x15x0x2                       1.000000
x90x0x1                       1.000000
x90x0x2                       1.000000
x116x0x1                      1.000000
x116x0x2                      1.000000
x9x0x1                        2.000000
x92x0x2                       1.000000
x92x0x3                       1.000000
x50x0x1                       1.000000
x50x0x3                       1.000000
s153                          5.826639
z153z15z1                     1.000000
z153z15z2                     1.000000
s182                          5.370000
z182z30z2                     1.000000
z182z30z3                     1.000000
s175                          4.478750
z175z59z2                     1.000000
z175z48z1                     1.000000
z175z102z2                    1.000000
z175z118z1                    1.000000
z175z9z1                      1.000000
s161                          4.696930
z161z97z1                     1.000000
z161z99z1                     1.000000
z161z118z1                    1.000000
z161z9z1                      1.000000
s180                          4.778940
z180z97z1                     1.000000
z180z99z1                     1.000000
z180z118z1                    1.000000
z180z9z1                      1.000000
s129                          4.800040
z129z59z2                     1.000000
z129z48z3                     1.000000
z129z102z2                    1.000000
z129z82z3                     1.000000
z129z103z3                    1.000000
z129z178z3                    1.000000
z59z90z2                      1.000000
z59z116z2                     1.000000
z97z90z1                      1.000000
z97z116z1                     1.000000
z99z9z1                       1.000000
z99z50z1                      1.000000
z30z92z2                      1.000000
z30z92z3                      1.000000
z48z9z1                       1.000000
z48z50z3                      1.000000
All other variables in the range 1-1172 are 0.
